# Node Net
920   1
1579   1
1281   1
1565   2
840   2
361   2
1320   3
161   3
1571   3
1562   4
241   4
1080   4
 26   5
201   5
  7   5
1573   6
1594   6
1595   7
961   7
521   8
 29   8
1581   9
1597   9
1578  10
1480  10
1240  11
841  11
